(set-logic BV) (define-fun origCir ((n127 Bool) (n325 Bool) (n254 Bool) (n207 Bool) (i37 Bool)) Bool (xor (and (xor n325 (not (and n254 n207))) n127) i37)) (synth-fun skel ((n127 Bool) (n325 Bool) (n254 Bool) (n207 Bool) (i37 Bool)) Bool) (declare-var n127 Bool) (declare-var n325 Bool) (declare-var n254 Bool) (declare-var n207 Bool) (declare-var i37 Bool) (constraint (= (origCir n127 n325 n254 n207 i37) (skel n127 n325 n254 n207 i37))) (check-synth)
